NAME          DCAP_2_4_3_200_SS180
ROWS
 N  OBJ
 L  CON1
 L  CON2
 L  CON3
 L  CON4
 L  CON5
 L  CON6
 L  CON7
 L  CON8
 L  CON9
 L  CON10
 L  CON11
 L  CON12
 E  CON13
 E  CON14
 E  CON15
 E  CON16
 E  CON17
 E  CON18
 E  CON19
 E  CON20
 E  CON21
 E  CON22
 E  CON23
 E  CON24
COLUMNS
    x[1,1]    OBJ       6.180167      CON1      1.000000    
    x[1,1]    CON7      -1.000000     CON8      -1.000000   
    x[1,1]    CON9      -1.000000   
    x[1,2]    OBJ       6.563535      CON2      1.000000    
    x[1,2]    CON8      -1.000000     CON9      -1.000000   
    x[1,3]    OBJ       7.443064      CON3      1.000000    
    x[1,3]    CON9      -1.000000   
    x[2,1]    OBJ       6.732585      CON4      1.000000    
    x[2,1]    CON10     -1.000000     CON11     -1.000000   
    x[2,1]    CON12     -1.000000   
    x[2,2]    OBJ       5.039546      CON5      1.000000    
    x[2,2]    CON11     -1.000000     CON12     -1.000000   
    x[2,3]    OBJ       6.054841      CON6      1.000000    
    x[2,3]    CON12     -1.000000   
    MARKER    'MARKER'                'INTORG'
    u[1,1]    OBJ       48.076654     CON1      -1.000000   
    u[1,2]    OBJ       20.066487     CON2      -1.000000   
    u[1,3]    OBJ       32.230043     CON3      -1.000000   
    u[2,1]    OBJ       49.996186     CON4      -1.000000   
    u[2,2]    OBJ       49.466655     CON5      -1.000000   
    u[2,3]    OBJ       27.484319     CON6      -1.000000   
    y[1,1,1]  OBJ       8.998518      CON7      1.002353    
    y[1,1,1]  CON13     1.000000    
    y[1,1,2]  OBJ       8.268225      CON8      1.017966    
    y[1,1,2]  CON14     1.000000    
    y[1,1,3]  OBJ       8.574615      CON9      0.642859    
    y[1,1,3]  CON15     1.000000    
    y[1,2,1]  OBJ       6.862402      CON7      1.089919    
    y[1,2,1]  CON16     1.000000    
    y[1,2,2]  OBJ       9.283755      CON8      1.420012    
    y[1,2,2]  CON17     1.000000    
    y[1,2,3]  OBJ       8.754191      CON9      0.515594    
    y[1,2,3]  CON18     1.000000    
    y[1,3,1]  OBJ       9.489536      CON7      1.011292    
    y[1,3,1]  CON19     1.000000    
    y[1,3,2]  OBJ       9.132646      CON8      1.343350    
    y[1,3,2]  CON20     1.000000    
    y[1,3,3]  OBJ       6.011997      CON9      1.471983    
    y[1,3,3]  CON21     1.000000    
    y[1,4,1]  OBJ       6.851071      CON7      0.630514    
    y[1,4,1]  CON22     1.000000    
    y[1,4,2]  OBJ       6.751479      CON8      1.258447    
    y[1,4,2]  CON23     1.000000    
    y[1,4,3]  OBJ       8.122095      CON9      1.306706    
    y[1,4,3]  CON24     1.000000    
    y[2,1,1]  OBJ       7.501349      CON10     1.002353    
    y[2,1,1]  CON13     1.000000    
    y[2,1,2]  OBJ       5.380798      CON11     1.017966    
    y[2,1,2]  CON14     1.000000    
    y[2,1,3]  OBJ       7.381644      CON12     0.642859    
    y[2,1,3]  CON15     1.000000    
    y[2,2,1]  OBJ       6.218097      CON10     1.089919    
    y[2,2,1]  CON16     1.000000    
    y[2,2,2]  OBJ       9.301158      CON11     1.420012    
    y[2,2,2]  CON17     1.000000    
    y[2,2,3]  OBJ       5.344533      CON12     0.515594    
    y[2,2,3]  CON18     1.000000    
    y[2,3,1]  OBJ       7.345603      CON10     1.011292    
    y[2,3,1]  CON19     1.000000    
    y[2,3,2]  OBJ       6.110476      CON11     1.343350    
    y[2,3,2]  CON20     1.000000    
    y[2,3,3]  OBJ       7.945593      CON12     1.471983    
    y[2,3,3]  CON21     1.000000    
    y[2,4,1]  OBJ       5.219122      CON10     0.630514    
    y[2,4,1]  CON22     1.000000    
    y[2,4,2]  OBJ       7.427041      CON11     1.258447    
    y[2,4,2]  CON23     1.000000    
    y[2,4,3]  OBJ       6.784834      CON12     1.306706    
    y[2,4,3]  CON24     1.000000    
    z[1,1]    OBJ       906.124187    CON13     1.000000    
    z[1,2]    OBJ       757.951043    CON14     1.000000    
    z[1,3]    OBJ       865.993720    CON15     1.000000    
    z[2,1]    OBJ       656.172993    CON16     1.000000    
    z[2,2]    OBJ       740.920127    CON17     1.000000    
    z[2,3]    OBJ       527.864778    CON18     1.000000    
    z[3,1]    OBJ       505.461978    CON19     1.000000    
    z[3,2]    OBJ       732.569759    CON20     1.000000    
    z[3,3]    OBJ       603.615455    CON21     1.000000    
    z[4,1]    OBJ       979.424793    CON22     1.000000    
    z[4,2]    OBJ       736.186071    CON23     1.000000    
    z[4,3]    OBJ       546.758568    CON24     1.000000    
    MARKER    'MARKER'                 'INTEND'
RHS
    RHS       CON1      -0.000000     CON2      -0.000000   
    RHS       CON3      -0.000000     CON4      -0.000000   
    RHS       CON5      -0.000000     CON6      -0.000000   
    RHS       CON7      -0.000000     CON8      -0.000000   
    RHS       CON9      -0.000000     CON10     -0.000000   
    RHS       CON11     -0.000000     CON12     -0.000000   
    RHS       CON13     1.000000      CON14     1.000000    
    RHS       CON15     1.000000      CON16     1.000000    
    RHS       CON17     1.000000      CON18     1.000000    
    RHS       CON19     1.000000      CON20     1.000000    
    RHS       CON21     1.000000      CON22     1.000000    
    RHS       CON23     1.000000      CON24     1.000000    
BOUNDS
 BV BOUND     u[1,1]  
 BV BOUND     u[1,2]  
 BV BOUND     u[1,3]  
 BV BOUND     u[2,1]  
 BV BOUND     u[2,2]  
 BV BOUND     u[2,3]  
 BV BOUND     y[1,1,1]
 BV BOUND     y[1,1,2]
 BV BOUND     y[1,1,3]
 BV BOUND     y[1,2,1]
 BV BOUND     y[1,2,2]
 BV BOUND     y[1,2,3]
 BV BOUND     y[1,3,1]
 BV BOUND     y[1,3,2]
 BV BOUND     y[1,3,3]
 BV BOUND     y[1,4,1]
 BV BOUND     y[1,4,2]
 BV BOUND     y[1,4,3]
 BV BOUND     y[2,1,1]
 BV BOUND     y[2,1,2]
 BV BOUND     y[2,1,3]
 BV BOUND     y[2,2,1]
 BV BOUND     y[2,2,2]
 BV BOUND     y[2,2,3]
 BV BOUND     y[2,3,1]
 BV BOUND     y[2,3,2]
 BV BOUND     y[2,3,3]
 BV BOUND     y[2,4,1]
 BV BOUND     y[2,4,2]
 BV BOUND     y[2,4,3]
 BV BOUND     z[1,1]  
 BV BOUND     z[1,2]  
 BV BOUND     z[1,3]  
 BV BOUND     z[2,1]  
 BV BOUND     z[2,2]  
 BV BOUND     z[2,3]  
 BV BOUND     z[3,1]  
 BV BOUND     z[3,2]  
 BV BOUND     z[3,3]  
 BV BOUND     z[4,1]  
 BV BOUND     z[4,2]  
 BV BOUND     z[4,3]  
ENDATA
